39721 39398 
38682 40259 
39405 39951 
38447 40509 
39658 39796 
39229 39997 
38669 40446 
39717 39545 
38904 40149 
39686 39637 
39921 39387 
39433 39839 
38701 40199 
40456 39004 
38954 40044 
40425 39096 
40190 39142 
40992 38212 
40808 38464 
41023 38120 
40644 38656 
40814 38276 
